(set-logic QF_S)
(set-option :strings-exp true)
(set-option :produce-models true)
(declare-fun sigmaStar_0 () String)
(declare-fun sigmaStar_1 () String)
(declare-fun sigmaStar_2 () String)
(declare-fun literal_4 () String)
(declare-fun x_3 () String)
(declare-fun epsilon () String)
(declare-fun x_5 () String)
(declare-fun literal_8 () String)
(declare-fun x_9 () String)
(declare-fun literal_7 () String)
(declare-fun x_10 () String)
(declare-fun literal_11 () String)
(declare-fun x_12 () String)
(assert (= literal_4 "\x3c\x74\x61\x62\x6c\x65\x20\x61\x6c\x69\x67\x6e\x3d\x22\x63\x65\x6e\x74\x65\x72\x22\x3e\x3c\x74\x72\x3e\x3c\x74\x68\x20\x63\x6f\x6c\x73\x70\x61\x6e\x3d\x22\x33\x22\x3e"))
(assert (= epsilon ""))
(assert (or (= x_3 epsilon) (= x_3 sigmaStar_2)))
(assert (= x_5 (str.++ literal_4 x_3)))
(assert (= literal_8 "\x20"))
(assert (= x_9 (str.++ x_5 literal_8)))
(assert (= literal_7 "\x73\x74\x61\x74\x73"))
(assert (= x_10 (str.++ x_9 literal_7)))
(assert (= literal_11 "\x3c\x2f\x74\x68\x3e\x3c\x2f\x74\x72\x3e"))
(assert (= x_12 (str.++ x_10 literal_11)))
(assert (str.in.re x_12 (re.++ (re.* re.allchar) (re.++ (str.to.re "\x5c\x3c\x53\x43\x52\x49\x50\x54") (re.* re.allchar)))))
(check-sat)
(get-model)
